SCIP version 5.0.0 [precision: 8 byte] [memory: block] [mode: optimized] [LP solver: NONE] [GitHash: 3bbd232]
Copyright (C) 2002-2017 Konrad-Zuse-Zentrum fuer Informationstechnik Berlin (ZIB)

External codes: 
  Readline EditLine w  GNU library for command line editing (gnu.org/s/readline)
  CppAD 20160000.1     Algorithmic Differentiation of C++ algorithms developed by B. Bell (www.coin-or.org/CppAD)
  ZLIB 1.2.5           General purpose compression library by J. Gailly and M. Adler (zlib.net)
  GMP 6.1.2            GNU Multiple Precision Arithmetic Library developed by T. Granlund (gmplib.org)

user parameter file <scip.set> not found - using default parameters

read problem <../../Split_data/output/biodeg/2/0_sample_biodeg.logreg>
============

File name	:	../../Split_data/output/biodeg/2/0_sample_biodeg.logreg
Problem name 	:	0_sample_biodeg
Number of data	:	844
Number of var	:	41
The given data has linear independence

[dim=1] time: 0.031128
[dim=2] time: 0.059524
[dim=3] time: 0.096758
[dim=4] time: 0.127976
[dim=5] time: 0.158254
[dim=6] time: 0.186728
[dim=7] time: 0.216763
[dim=8] time: 0.247776
[dim=9] time: 0.285205
[dim=10] time: 0.304368
[dim=11] time: 0.323447
[dim=12] time: 0.341728
[dim=13] time: 0.364246
[dim=14] time: 0.379942
[dim=15] time: 0.39577
[dim=16] time: 0.411111
[dim=17] time: 0.426325
[dim=18] time: 0.441118
[dim=19] time: 0.456406
[dim=20] time: 0.487245
[dim=21] time: 0.501027
[dim=22] time: 0.514636
[dim=23] Time of forward = 0.528776sec.
AIC: 524.312
k: 22

[dim=41] time: 0.151727
[dim=40] time: 0.194995
[dim=39] time: 0.23576
[dim=38] time: 0.283788
[dim=37] time: 0.332167
[dim=36] time: 0.373865
[dim=35] time: 0.45554
[dim=34] time: 0.583739
[dim=33] time: 0.631725
[dim=32] time: 0.671043
[dim=31] time: 0.716155
[dim=30] time: 0.752435
[dim=29] time: 0.807235
[dim=28] time: 0.913625
[dim=27] time: 0.952816
[dim=26] time: 0.979968
[dim=25] time: 1.00312
[dim=24] time: 1.02624
[dim=23] time: 1.04963
[dim=22] time: 1.07943
[dim=21] Time of backward = 1.1292sec.
AIC: 519.495
k: 22
